Starting solution of the Linear programming relaxation problem using Primal Simplex

Coin0506I Presolve 21662 (-21621) rows, 820 (0) columns and 44882 (-43242) elements
Clp1000I sum of infeasibilities 2.73265e-05 - average 1.26149e-09, 605 fixed columns
Coin0506I Presolve 1141 (-20521) rows, 215 (-605) columns and 2630 (-42252) elements
Clp0006I 0  Obj 861.71552 Primal inf 4.4081187e-06 (12) Dual inf 6.2000001e+09 (203)
Clp0029I End of values pass after 215 iterations
Clp0014I Perturbing problem by 0.001% of 1.0000001 - largest nonzero change 2.9976735e-05 ( 0.0014988367%) - largest zero change 2.8834042e-05
Clp0000I Optimal - objective value 859.95356
Clp0000I Optimal - objective value 859.95356
Coin0511I After Postsolve, objective 859.95356, infeasibilities - dual 0 (0), primal 0 (0)
Clp0006I 0  Obj 859.95356
Clp0000I Optimal - objective value 859.95356
Clp0000I Optimal - objective value 859.95356
Clp0000I Optimal - objective value 859.95356
Coin0511I After Postsolve, objective 859.95356, infeasibilities - dual 0 (0), primal 0 (0)
Clp0032I Optimal objective 859.9535643 - 0 iterations time 0.632, Presolve 0.03, Idiot 0.59

Starting MIP optimization
Cbc0045I MIPStart provided solution with cost 1017.74
Cbc0012I Integer solution of 1017.7375 found by Reduced search after 0 iterations and 0 nodes (0.11 seconds)
Cbc0013I At root node, 0 cuts changed objective from 859.95356 to 859.95356 in 1 passes
Cbc0014I Cut generator 0 (LazyConstraints) - 0 row cuts average 0.0 elements, 0 column cuts (0 active)  in 0.009 seconds - new frequency is 1
Cbc0014I Cut generator 1 (Probing) - 0 row cuts average 0.0 elements, 0 column cuts (0 active)  in 0.000 seconds - new frequency is -100
Cbc0014I Cut generator 2 (Gomory) - 0 row cuts average 0.0 elements, 0 column cuts (0 active)  in 0.000 seconds - new frequency is -100
Cbc0014I Cut generator 3 (Knapsack) - 0 row cuts average 0.0 elements, 0 column cuts (0 active)  in 0.000 seconds - new frequency is -100
Cbc0014I Cut generator 4 (MixedIntegerRounding2) - 0 row cuts average 0.0 elements, 0 column cuts (0 active)  in 0.000 seconds - new frequency is -100
Cbc0014I Cut generator 5 (FlowCover) - 0 row cuts average 0.0 elements, 0 column cuts (0 active)  in 0.000 seconds - new frequency is -100
Cbc0014I Cut generator 6 (TwoMirCuts) - 0 row cuts average 0.0 elements, 0 column cuts (0 active)  in 0.000 seconds - new frequency is -100
Cbc0014I Cut generator 7 (ZeroHalf) - 0 row cuts average 0.0 elements, 0 column cuts (0 active)  in 0.000 seconds - new frequency is -100
Cbc0010I After 7 nodes, 8 on tree, 1017.7375 best solution, best possible 859.95356 (1.03 seconds)
Cbc0010I After 14 nodes, 12 on tree, 1017.7375 best solution, best possible 859.95356 (1.76 seconds)
Cbc0010I After 25 nodes, 11 on tree, 1017.7375 best solution, best possible 859.95356 (2.53 seconds)
Cbc0010I After 34 nodes, 13 on tree, 1017.7375 best solution, best possible 859.95356 (3.28 seconds)
Cbc0010I After 50 nodes, 22 on tree, 1017.7375 best solution, best possible 859.95356 (3.99 seconds)
Cbc0010I After 77 nodes, 27 on tree, 1017.7375 best solution, best possible 859.95356 (4.70 seconds)
Cbc0010I After 104 nodes, 27 on tree, 1017.7375 best solution, best possible 859.95356 (5.44 seconds)
Cbc0010I After 124 nodes, 26 on tree, 1017.7375 best solution, best possible 859.95356 (6.14 seconds)
Cbc0010I After 143 nodes, 27 on tree, 1017.7375 best solution, best possible 859.95356 (6.92 seconds)
Cbc0010I After 165 nodes, 23 on tree, 1017.7375 best solution, best possible 859.95356 (7.66 seconds)
Cbc0010I After 188 nodes, 20 on tree, 1017.7375 best solution, best possible 859.95356 (8.39 seconds)
Cbc0010I After 216 nodes, 16 on tree, 1017.7375 best solution, best possible 859.95356 (9.15 seconds)
Cbc0010I After 239 nodes, 15 on tree, 1017.7375 best solution, best possible 859.95356 (9.85 seconds)
Cbc0010I After 260 nodes, 18 on tree, 1017.7375 best solution, best possible 859.95356 (10.57 seconds)
Cbc0010I After 278 nodes, 28 on tree, 1017.7375 best solution, best possible 859.95356 (11.29 seconds)
Cbc0010I After 306 nodes, 23 on tree, 1017.7375 best solution, best possible 859.95356 (11.99 seconds)
Cbc0010I After 322 nodes, 29 on tree, 1017.7375 best solution, best possible 859.95356 (12.71 seconds)
Cbc0010I After 349 nodes, 25 on tree, 1017.7375 best solution, best possible 859.95356 (13.42 seconds)
Cbc0010I After 376 nodes, 25 on tree, 1017.7375 best solution, best possible 859.95356 (14.14 seconds)
Cbc0010I After 404 nodes, 22 on tree, 1017.7375 best solution, best possible 859.95356 (14.85 seconds)
Cbc0010I After 435 nodes, 17 on tree, 1017.7375 best solution, best possible 859.95356 (15.56 seconds)
Cbc0010I After 462 nodes, 12 on tree, 1017.7375 best solution, best possible 859.95356 (16.28 seconds)
Cbc0010I After 482 nodes, 12 on tree, 1017.7375 best solution, best possible 859.95356 (16.99 seconds)
Cbc0010I After 510 nodes, 15 on tree, 1017.7375 best solution, best possible 859.95356 (17.71 seconds)
Cbc0010I After 535 nodes, 10 on tree, 1017.7375 best solution, best possible 859.95356 (18.44 seconds)
Cbc0010I After 557 nodes, 11 on tree, 1017.7375 best solution, best possible 859.95356 (19.20 seconds)
Cbc0010I After 580 nodes, 19 on tree, 1017.7375 best solution, best possible 859.95356 (19.92 seconds)
Cbc0010I After 613 nodes, 11 on tree, 1017.7375 best solution, best possible 859.95356 (20.63 seconds)
Cbc0010I After 637 nodes, 10 on tree, 1017.7375 best solution, best possible 859.95356 (21.37 seconds)
Cbc0010I After 666 nodes, 7 on tree, 1017.7375 best solution, best possible 859.95356 (22.09 seconds)
Cbc0010I After 690 nodes, 10 on tree, 1017.7375 best solution, best possible 859.95356 (22.79 seconds)
Cbc0010I After 706 nodes, 17 on tree, 1017.7375 best solution, best possible 859.95356 (23.49 seconds)
Cbc0010I After 732 nodes, 11 on tree, 1017.7375 best solution, best possible 859.95356 (24.24 seconds)
Cbc0010I After 753 nodes, 14 on tree, 1017.7375 best solution, best possible 859.95356 (24.94 seconds)
Cbc0010I After 775 nodes, 18 on tree, 1017.7375 best solution, best possible 859.95356 (25.75 seconds)
Cbc0010I After 807 nodes, 14 on tree, 1017.7375 best solution, best possible 859.95356 (26.47 seconds)
Cbc0010I After 829 nodes, 17 on tree, 1017.7375 best solution, best possible 859.95356 (27.26 seconds)
Cbc0010I After 846 nodes, 22 on tree, 1017.7375 best solution, best possible 859.95356 (27.97 seconds)
Cbc0010I After 873 nodes, 21 on tree, 1017.7375 best solution, best possible 859.95356 (28.67 seconds)
Cbc0010I After 900 nodes, 16 on tree, 1017.7375 best solution, best possible 859.95356 (29.41 seconds)
Cbc0010I After 923 nodes, 21 on tree, 1017.7375 best solution, best possible 859.95356 (30.14 seconds)
Cbc0010I After 952 nodes, 17 on tree, 1017.7375 best solution, best possible 859.95356 (30.87 seconds)
Cbc0010I After 981 nodes, 16 on tree, 1017.7375 best solution, best possible 859.95356 (31.59 seconds)
Cbc0010I After 1005 nodes, 19 on tree, 1017.7375 best solution, best possible 869.51905 (32.34 seconds)
Cbc0010I After 1020 nodes, 34 on tree, 1017.7375 best solution, best possible 869.51905 (33.06 seconds)
Cbc0010I After 1038 nodes, 51 on tree, 1017.7375 best solution, best possible 869.51905 (33.77 seconds)
Cbc0010I After 1060 nodes, 48 on tree, 1017.7375 best solution, best possible 869.51905 (34.51 seconds)
Cbc0010I After 1082 nodes, 47 on tree, 1017.7375 best solution, best possible 869.51905 (35.24 seconds)
Cbc0010I After 1110 nodes, 44 on tree, 1017.7375 best solution, best possible 869.51905 (36.00 seconds)
Cbc0010I After 1136 nodes, 52 on tree, 1017.7375 best solution, best possible 869.51905 (36.72 seconds)
Cbc0010I After 1161 nodes, 49 on tree, 1017.7375 best solution, best possible 869.51905 (37.46 seconds)
Cbc0010I After 1186 nodes, 48 on tree, 1017.7375 best solution, best possible 869.51905 (38.16 seconds)
Cbc0010I After 1216 nodes, 46 on tree, 1017.7375 best solution, best possible 869.51905 (38.89 seconds)
Cbc0010I After 1246 nodes, 46 on tree, 1017.7375 best solution, best possible 869.51905 (39.61 seconds)
Cbc0010I After 1282 nodes, 46 on tree, 1017.7375 best solution, best possible 869.51905 (40.34 seconds)
Cbc0010I After 1310 nodes, 46 on tree, 1017.7375 best solution, best possible 869.51905 (41.07 seconds)
Cbc0010I After 1343 nodes, 40 on tree, 1017.7375 best solution, best possible 869.51905 (41.77 seconds)
Cbc0010I After 1366 nodes, 48 on tree, 1017.7375 best solution, best possible 869.51905 (42.50 seconds)
Cbc0010I After 1395 nodes, 36 on tree, 1017.7375 best solution, best possible 869.51905 (43.25 seconds)
Cbc0010I After 1422 nodes, 40 on tree, 1017.7375 best solution, best possible 869.51905 (43.98 seconds)
Cbc0010I After 1447 nodes, 40 on tree, 1017.7375 best solution, best possible 869.51905 (44.70 seconds)
Cbc0010I After 1480 nodes, 38 on tree, 1017.7375 best solution, best possible 869.51905 (45.41 seconds)
Cbc0010I After 1496 nodes, 44 on tree, 1017.7375 best solution, best possible 869.51905 (46.17 seconds)
Cbc0010I After 1515 nodes, 50 on tree, 1017.7375 best solution, best possible 869.51905 (46.88 seconds)
Cbc0010I After 1542 nodes, 48 on tree, 1017.7375 best solution, best possible 869.51905 (47.63 seconds)
Cbc0010I After 1563 nodes, 49 on tree, 1017.7375 best solution, best possible 869.51905 (48.35 seconds)
Cbc0010I After 1596 nodes, 45 on tree, 1017.7375 best solution, best possible 869.51905 (49.08 seconds)
Cbc0010I After 1628 nodes, 39 on tree, 1017.7375 best solution, best possible 869.51905 (49.80 seconds)
Cbc0010I After 1652 nodes, 47 on tree, 1017.7375 best solution, best possible 869.51905 (50.55 seconds)
Cbc0010I After 1683 nodes, 42 on tree, 1017.7375 best solution, best possible 869.51905 (51.27 seconds)
Cbc0010I After 1716 nodes, 39 on tree, 1017.7375 best solution, best possible 869.51905 (52.02 seconds)
Cbc0010I After 1758 nodes, 35 on tree, 1017.7375 best solution, best possible 869.51905 (52.75 seconds)
Cbc0010I After 1784 nodes, 42 on tree, 1017.7375 best solution, best possible 869.51905 (53.45 seconds)
Cbc0010I After 1815 nodes, 42 on tree, 1017.7375 best solution, best possible 869.51905 (54.16 seconds)
Cbc0010I After 1842 nodes, 40 on tree, 1017.7375 best solution, best possible 869.51905 (54.86 seconds)
Cbc0010I After 1871 nodes, 40 on tree, 1017.7375 best solution, best possible 869.51905 (55.59 seconds)
Cbc0010I After 1902 nodes, 43 on tree, 1017.7375 best solution, best possible 869.51905 (56.30 seconds)
Cbc0010I After 1932 nodes, 35 on tree, 1017.7375 best solution, best possible 869.51905 (57.03 seconds)
Cbc0010I After 1956 nodes, 44 on tree, 1017.7375 best solution, best possible 869.51905 (57.73 seconds)
Cbc0010I After 1982 nodes, 44 on tree, 1017.7375 best solution, best possible 869.51905 (58.50 seconds)
Cbc0010I After 2008 nodes, 44 on tree, 1017.7375 best solution, best possible 869.51905 (59.22 seconds)
Cbc0010I After 2033 nodes, 43 on tree, 1017.7375 best solution, best possible 869.51905 (59.92 seconds)
Cbc0010I After 2063 nodes, 43 on tree, 1017.7375 best solution, best possible 869.51905 (60.67 seconds)
Cbc0010I After 2089 nodes, 39 on tree, 1017.7375 best solution, best possible 869.51905 (61.40 seconds)
Cbc0010I After 2128 nodes, 38 on tree, 1017.7375 best solution, best possible 869.51905 (62.14 seconds)
Cbc0010I After 2166 nodes, 36 on tree, 1017.7375 best solution, best possible 869.51905 (62.85 seconds)
Cbc0010I After 2199 nodes, 39 on tree, 1017.7375 best solution, best possible 869.51905 (63.61 seconds)
Cbc0010I After 2228 nodes, 38 on tree, 1017.7375 best solution, best possible 869.51905 (64.36 seconds)
Cbc0010I After 2260 nodes, 38 on tree, 1017.7375 best solution, best possible 869.51905 (65.09 seconds)
Cbc0010I After 2294 nodes, 34 on tree, 1017.7375 best solution, best possible 869.51905 (65.79 seconds)
Cbc0010I After 2327 nodes, 44 on tree, 1017.7375 best solution, best possible 869.51905 (66.49 seconds)
Cbc0010I After 2362 nodes, 45 on tree, 1017.7375 best solution, best possible 869.51905 (67.22 seconds)
Cbc0010I After 2388 nodes, 38 on tree, 1017.7375 best solution, best possible 869.51905 (67.94 seconds)
Cbc0010I After 2418 nodes, 38 on tree, 1017.7375 best solution, best possible 869.51905 (68.69 seconds)
Cbc0010I After 2443 nodes, 41 on tree, 1017.7375 best solution, best possible 869.51905 (69.40 seconds)
Cbc0010I After 2466 nodes, 41 on tree, 1017.7375 best solution, best possible 869.51905 (70.11 seconds)
Cbc0010I After 2492 nodes, 36 on tree, 1017.7375 best solution, best possible 869.51905 (70.81 seconds)
Cbc0010I After 2523 nodes, 35 on tree, 1017.7375 best solution, best possible 869.51905 (71.53 seconds)
Cbc0010I After 2560 nodes, 42 on tree, 1017.7375 best solution, best possible 869.51905 (72.25 seconds)
Cbc0010I After 2589 nodes, 39 on tree, 1017.7375 best solution, best possible 869.51905 (72.95 seconds)
Cbc0010I After 2628 nodes, 40 on tree, 1017.7375 best solution, best possible 869.51905 (73.66 seconds)
Cbc0010I After 2656 nodes, 37 on tree, 1017.7375 best solution, best possible 869.51905 (74.41 seconds)
Cbc0010I After 2688 nodes, 36 on tree, 1017.7375 best solution, best possible 869.51905 (75.15 seconds)
Cbc0010I After 2720 nodes, 36 on tree, 1017.7375 best solution, best possible 869.51905 (75.85 seconds)
Cbc0010I After 2748 nodes, 37 on tree, 1017.7375 best solution, best possible 869.51905 (76.57 seconds)
Cbc0010I After 2785 nodes, 33 on tree, 1017.7375 best solution, best possible 869.51905 (77.28 seconds)
Cbc0010I After 2832 nodes, 35 on tree, 1017.7375 best solution, best possible 869.51905 (77.99 seconds)
Cbc0010I After 2899 nodes, 30 on tree, 1017.7375 best solution, best possible 869.51905 (78.71 seconds)
Cbc0010I After 2925 nodes, 39 on tree, 1017.7375 best solution, best possible 869.51905 (79.42 seconds)
Cbc0010I After 2957 nodes, 40 on tree, 1017.7375 best solution, best possible 869.51905 (80.20 seconds)
Cbc0010I After 2986 nodes, 40 on tree, 1017.7375 best solution, best possible 869.51905 (80.92 seconds)
Cbc0010I After 3021 nodes, 37 on tree, 1017.7375 best solution, best possible 869.51905 (81.62 seconds)
Cbc0010I After 3046 nodes, 37 on tree, 1017.7375 best solution, best possible 869.51905 (82.36 seconds)
Cbc0010I After 3080 nodes, 38 on tree, 1017.7375 best solution, best possible 869.51905 (83.07 seconds)
Cbc0010I After 3112 nodes, 37 on tree, 1017.7375 best solution, best possible 869.51905 (83.80 seconds)
Cbc0010I After 3144 nodes, 35 on tree, 1017.7375 best solution, best possible 869.51905 (84.55 seconds)
Cbc0010I After 3179 nodes, 34 on tree, 1017.7375 best solution, best possible 869.51905 (85.27 seconds)
Cbc0010I After 3208 nodes, 37 on tree, 1017.7375 best solution, best possible 869.51905 (85.99 seconds)
Cbc0010I After 3243 nodes, 36 on tree, 1017.7375 best solution, best possible 869.51905 (86.72 seconds)
Cbc0010I After 3279 nodes, 37 on tree, 1017.7375 best solution, best possible 869.51905 (87.42 seconds)
Cbc0010I After 3322 nodes, 37 on tree, 1017.7375 best solution, best possible 869.51905 (88.18 seconds)
Cbc0010I After 3361 nodes, 32 on tree, 1017.7375 best solution, best possible 869.51905 (88.89 seconds)
Cbc0010I After 3391 nodes, 40 on tree, 1017.7375 best solution, best possible 869.51905 (89.64 seconds)
Cbc0010I After 3421 nodes, 38 on tree, 1017.7375 best solution, best possible 869.51905 (90.34 seconds)
Cbc0010I After 3450 nodes, 40 on tree, 1017.7375 best solution, best possible 869.51905 (91.06 seconds)
Cbc0010I After 3482 nodes, 37 on tree, 1017.7375 best solution, best possible 869.51905 (91.82 seconds)
Cbc0010I After 3514 nodes, 37 on tree, 1017.7375 best solution, best possible 869.51905 (92.52 seconds)
Cbc0010I After 3545 nodes, 39 on tree, 1017.7375 best solution, best possible 869.51905 (93.23 seconds)
Cbc0010I After 3576 nodes, 37 on tree, 1017.7375 best solution, best possible 869.51905 (93.96 seconds)
Cbc0010I After 3623 nodes, 37 on tree, 1017.7375 best solution, best possible 869.51905 (94.68 seconds)
Cbc0010I After 3657 nodes, 34 on tree, 1017.7375 best solution, best possible 869.51905 (95.40 seconds)
Cbc0010I After 3691 nodes, 30 on tree, 1017.7375 best solution, best possible 869.51905 (96.12 seconds)
Cbc0010I After 3736 nodes, 27 on tree, 1017.7375 best solution, best possible 869.51905 (96.86 seconds)
Cbc0010I After 3761 nodes, 41 on tree, 1017.7375 best solution, best possible 869.51905 (97.61 seconds)
Cbc0010I After 3797 nodes, 36 on tree, 1017.7375 best solution, best possible 869.51905 (98.33 seconds)
Cbc0004I Integer solution of 1017.0912 found after 296348 iterations and 3836 nodes (99.11 seconds)
Cbc0010I After 3836 nodes, 46 on tree, 1017.0912 best solution, best possible 869.51905 (99.11 seconds)
Cbc0010I After 3859 nodes, 56 on tree, 1017.0912 best solution, best possible 869.51905 (99.82 seconds)
Cbc0010I After 3884 nodes, 67 on tree, 1017.0912 best solution, best possible 869.51905 (100.53 seconds)
Cbc0010I After 3915 nodes, 78 on tree, 1017.0912 best solution, best possible 869.51905 (101.23 seconds)
Cbc0010I After 3938 nodes, 86 on tree, 1017.0912 best solution, best possible 869.51905 (101.96 seconds)
Cbc0010I After 3967 nodes, 91 on tree, 1017.0912 best solution, best possible 869.51905 (102.70 seconds)
Cbc0010I After 3995 nodes, 100 on tree, 1017.0912 best solution, best possible 869.51905 (103.41 seconds)
Cbc0010I After 4030 nodes, 116 on tree, 1017.0912 best solution, best possible 869.51905 (104.12 seconds)
Cbc0010I After 4070 nodes, 126 on tree, 1017.0912 best solution, best possible 869.51905 (104.82 seconds)
Cbc0010I After 4103 nodes, 133 on tree, 1017.0912 best solution, best possible 869.51905 (105.53 seconds)
Cbc0010I After 4133 nodes, 140 on tree, 1017.0912 best solution, best possible 869.51905 (106.23 seconds)
Cbc0010I After 4173 nodes, 143 on tree, 1017.0912 best solution, best possible 869.51905 (106.94 seconds)
Cbc0010I After 4204 nodes, 150 on tree, 1017.0912 best solution, best possible 869.51905 (107.65 seconds)
Cbc0010I After 4244 nodes, 149 on tree, 1017.0912 best solution, best possible 869.51905 (108.36 seconds)
Cbc0010I After 4275 nodes, 152 on tree, 1017.0912 best solution, best possible 869.51905 (109.06 seconds)
Cbc0010I After 4306 nodes, 160 on tree, 1017.0912 best solution, best possible 869.51905 (109.76 seconds)
Cbc0010I After 4342 nodes, 161 on tree, 1017.0912 best solution, best possible 869.51905 (110.48 seconds)
Cbc0010I After 4384 nodes, 166 on tree, 1017.0912 best solution, best possible 869.51905 (111.19 seconds)
Cbc0010I After 4420 nodes, 174 on tree, 1017.0912 best solution, best possible 869.51905 (111.91 seconds)
Cbc0010I After 4464 nodes, 173 on tree, 1017.0912 best solution, best possible 869.51905 (112.62 seconds)
Cbc0010I After 4508 nodes, 172 on tree, 1017.0912 best solution, best possible 869.51905 (113.35 seconds)
Cbc0010I After 4555 nodes, 167 on tree, 1017.0912 best solution, best possible 869.51905 (114.05 seconds)
Cbc0010I After 4587 nodes, 172 on tree, 1017.0912 best solution, best possible 869.51905 (114.75 seconds)
Cbc0010I After 4617 nodes, 171 on tree, 1017.0912 best solution, best possible 869.51905 (115.50 seconds)
Cbc0010I After 4657 nodes, 167 on tree, 1017.0912 best solution, best possible 869.51905 (116.22 seconds)
Cbc0010I After 4698 nodes, 158 on tree, 1017.0912 best solution, best possible 869.51905 (116.93 seconds)
Cbc0010I After 4736 nodes, 159 on tree, 1017.0912 best solution, best possible 869.51905 (117.63 seconds)
Cbc0010I After 4782 nodes, 152 on tree, 1017.0912 best solution, best possible 869.51905 (118.36 seconds)
Cbc0010I After 4824 nodes, 151 on tree, 1017.0912 best solution, best possible 869.51905 (119.14 seconds)
Cbc0010I After 4857 nodes, 149 on tree, 1017.0912 best solution, best possible 869.51905 (119.85 seconds)
Cbc0010I After 4895 nodes, 147 on tree, 1017.0912 best solution, best possible 869.51905 (120.60 seconds)
Cbc0010I After 4929 nodes, 144 on tree, 1017.0912 best solution, best possible 869.51905 (121.32 seconds)
Cbc0010I After 4960 nodes, 145 on tree, 1017.0912 best solution, best possible 869.51905 (122.02 seconds)
Cbc0010I After 4991 nodes, 140 on tree, 1017.0912 best solution, best possible 869.51905 (122.73 seconds)
Cbc0010I After 5013 nodes, 144 on tree, 1017.0912 best solution, best possible 869.51905 (123.49 seconds)
Cbc0010I After 5049 nodes, 141 on tree, 1017.0912 best solution, best possible 869.51905 (124.21 seconds)
Cbc0010I After 5073 nodes, 144 on tree, 1017.0912 best solution, best possible 869.51905 (124.91 seconds)
Cbc0010I After 5114 nodes, 136 on tree, 1017.0912 best solution, best possible 869.51905 (125.68 seconds)
Cbc0010I After 5162 nodes, 123 on tree, 1017.0912 best solution, best possible 869.51905 (126.39 seconds)
Cbc0010I After 5200 nodes, 122 on tree, 1017.0912 best solution, best possible 869.51905 (127.09 seconds)
Cbc0004I Integer solution of 1016.4782 found after 382939 iterations and 5217 nodes (127.49 seconds)
Cbc0010I After 5234 nodes, 110 on tree, 1016.4782 best solution, best possible 869.51905 (127.79 seconds)
Cbc0010I After 5267 nodes, 110 on tree, 1016.4782 best solution, best possible 869.51905 (128.50 seconds)
Cbc0010I After 5298 nodes, 115 on tree, 1016.4782 best solution, best possible 869.51905 (129.20 seconds)
Cbc0010I After 5332 nodes, 110 on tree, 1016.4782 best solution, best possible 869.51905 (129.91 seconds)
Cbc0010I After 5364 nodes, 111 on tree, 1016.4782 best solution, best possible 869.51905 (130.63 seconds)
Cbc0010I After 5405 nodes, 109 on tree, 1016.4782 best solution, best possible 869.51905 (131.35 seconds)
Cbc0010I After 5436 nodes, 106 on tree, 1016.4782 best solution,Modell wird erstellt...
Suche Startlösung...
None
Suche optimale Lösung...
OptimizationStatus.OPTIMAL
C:\Users\Philip\Documents\programmieren\python\bwinf41-2\weniger-krumme-touren\beispiele\random\40\402.txt
Lösung gefunden!
 best possible 869.51905 (132.05 seconds)
Cbc0010I After 5475 nodes, 99 on tree, 1016.4782 best solution, best possible 869.51905 (132.77 seconds)
Cbc0010I After 5506 nodes, 95 on tree, 1016.4782 best solution, best possible 869.51905 (133.50 seconds)
Cbc0010I After 5559 nodes, 90 on tree, 1016.4782 best solution, best possible 869.51905 (134.21 seconds)
Cbc0010I After 5604 nodes, 86 on tree, 1016.4782 best solution, best possible 869.51905 (134.91 seconds)
Cbc0010I After 5664 nodes, 68 on tree, 1016.4782 best solution, best possible 869.51905 (135.65 seconds)
Cbc0010I After 5697 nodes, 66 on tree, 1016.4782 best solution, best possible 869.51905 (136.37 seconds)
Cbc0010I After 5721 nodes, 68 on tree, 1016.4782 best solution, best possible 869.51905 (137.09 seconds)
Cbc0010I After 5768 nodes, 59 on tree, 1016.4782 best solution, best possible 869.51905 (137.81 seconds)
Cbc0010I After 5823 nodes, 44 on tree, 1016.4782 best solution, best possible 869.51905 (138.53 seconds)
Cbc0010I After 5865 nodes, 36 on tree, 1016.4782 best solution, best possible 869.51905 (139.24 seconds)
Cbc0010I After 5930 nodes, 14 on tree, 1016.4782 best solution, best possible 869.51905 (139.94 seconds)
Cbc0010I After 5957 nodes, 12 on tree, 1016.4782 best solution, best possible 869.51905 (140.64 seconds)
Cbc0010I After 5972 nodes, 16 on tree, 1016.4782 best solution, best possible 869.51905 (141.36 seconds)
Cbc0010I After 6007 nodes, 13 on tree, 1016.4782 best solution, best possible 869.51905 (142.06 seconds)
Cbc0010I After 6028 nodes, 23 on tree, 1016.4782 best solution, best possible 869.51905 (142.77 seconds)
Cbc0010I After 6060 nodes, 33 on tree, 1016.4782 best solution, best possible 869.51905 (143.47 seconds)
Cbc0010I After 6096 nodes, 35 on tree, 1016.4782 best solution, best possible 869.51905 (144.18 seconds)
Cbc0010I After 6125 nodes, 41 on tree, 1016.4782 best solution, best possible 869.51905 (144.90 seconds)
Cbc0010I After 6154 nodes, 47 on tree, 1016.4782 best solution, best possible 869.51905 (145.60 seconds)
Cbc0010I After 6198 nodes, 43 on tree, 1016.4782 best solution, best possible 869.51905 (146.30 seconds)
Cbc0010I After 6223 nodes, 50 on tree, 1016.4782 best solution, best possible 869.51905 (147.01 seconds)
Cbc0010I After 6269 nodes, 44 on tree, 1016.4782 best solution, best possible 869.51905 (147.77 seconds)
Cbc0010I After 6317 nodes, 35 on tree, 1016.4782 best solution, best possible 869.51905 (148.51 seconds)
Cbc0010I After 6341 nodes, 40 on tree, 1016.4782 best solution, best possible 869.51905 (149.22 seconds)
Cbc0010I After 6383 nodes, 34 on tree, 1016.4782 best solution, best possible 869.51905 (149.92 seconds)
Cbc0010I After 6440 nodes, 22 on tree, 1016.4782 best solution, best possible 869.51905 (150.62 seconds)
Cbc0010I After 6492 nodes, 6 on tree, 1016.4782 best solution, best possible 869.51905 (151.34 seconds)
Cbc0010I After 6520 nodes, 8 on tree, 1016.4782 best solution, best possible 869.51905 (152.05 seconds)
Cbc0010I After 6546 nodes, 12 on tree, 1016.4782 best solution, best possible 869.51905 (152.76 seconds)
Cbc0010I After 6578 nodes, 5 on tree, 1016.4782 best solution, best possible 869.51905 (153.46 seconds)
Cbc0010I After 6613 nodes, 4 on tree, 1016.4782 best solution, best possible 869.51905 (154.21 seconds)
Cbc0010I After 6643 nodes, 4 on tree, 1016.4782 best solution, best possible 869.51905 (154.91 seconds)
Cbc0010I After 6678 nodes, 1 on tree, 1016.4782 best solution, best possible 1007.9243 (155.63 seconds)
Cbc0001I Search completed - best objective 1016.478236626135, took 476656 iterations and 6680 nodes (155.65 seconds)
Cbc0032I Strong branching done 16972 times (292990 iterations), fathomed 1143 nodes and fixed 3023 variables
Cbc0035I Maximum depth 43, 273569 variables fixed on reduced cost
Total time (CPU seconds):       155.73   (Wallclock seconds):       155.73

